HUN,8,6,680
3,23,5,30,4,24,1,25,0,24,2,25
1,26,2,24,4,24,0,27,3,29,5,25
0,21,3,21,5,30,4,26,2,23,1,30
3,28,4,25,2,28,1,22,5,27,0,24
1,30,5,25,4,24,3,22,2,23,0,21
4,27,2,25,5,25,0,26,3,22,1,26
4,24,3,22,0,26,5,22,2,26,1,21
0,27,1,23,2,24,3,29,5,30,4,26
